NAME : mtspf.pid6322.gtsp.144955299.tour
COMMENT : Length = 144955299
COMMENT : Found by LKH [Keld Helsgaun] Tue Mar  4 13:46:45 2025
TYPE : TOUR
DIMENSION : 99
TOUR_SECTION
1
47
44
45
46
41
42
43
40
28
29
30
31
14
15
12
13
53
54
55
52
48
49
50
51
71
68
69
70
4
5
6
7
8
9
10
11
85
86
87
84
62
63
60
61
94
95
92
93
38
39
36
37
21
22
23
20
33
34
35
32
2
27
24
25
26
80
81
82
83
72
73
74
75
3
76
77
78
79
67
64
65
66
56
57
58
59
18
19
16
17
90
91
88
89
99
96
97
98
-1
EOF
